50, 622
25, 20
53, 48
31, 26
16, 11
28, 23
42, 37
17, 12
49, 44
15, 10
29, 24
54, 49
9, 4
6, 1
28, 23
35, 30
41, 36
46, 41
32, 27
16, 11
32, 27
45, 40
42, 37
10, 5
32, 27
32, 27
37, 32
34, 29
8, 3
47, 42
44, 39
31, 26
12, 7
36, 31
41, 36
46, 41
39, 34
37, 32
22, 17
7, 2
16, 11
52, 47
11, 6
25, 20
11, 6
14, 9
23, 18
26, 21
44, 39
18, 13
49, 44
